50	3
25	200
20
30
10
40
20
20
20
10
20
30
40
20
10
10
20
20
20
20
40
10
10
40
30
10
20
30
20
10
10
10
20
10
10
30
20
40
10
30
10
30
20
10
20
10
10
10
10
10
10
30
40	50	0	240	0	0
25	85	0	191	10	3
22	75	0	199	10	1
22	85	0	190	10	2
20	80	141	171	10	3
20	85	0	189	10	3
18	75	95	125	10	1
15	75	0	194	10	2
15	80	91	121	10	1
10	35	91	121	10	2
10	40	119	149	10	1
8	40	59	89	10	1
8	45	0	197	10	3
5	35	142	172	10	3
5	45	35	65	10	2
2	40	58	88	10	2
0	40	72	102	10	3
0	45	149	179	10	2
44	5	87	117	10	3
42	10	72	102	10	3
42	15	122	152	10	3
40	5	0	185	10	1
40	15	92	122	10	3
38	5	65	95	10	3
38	15	148	178	10	2
35	5	154	184	10	3
95	30	0	171	10	3
95	35	62	92	10	2
92	30	62	92	10	1
90	35	67	97	10	1
88	30	74	104	10	3
88	35	0	179	10	1
87	30	131	161	10	1
85	25	51	81	10	1
85	35	0	182	10	1
67	85	139	169	10	1
65	85	43	73	10	3
65	82	0	189	10	2
62	80	75	105	10	3
60	80	37	67	10	1
60	85	85	115	10	1
58	75	92	122	10	1
55	80	33	63	10	1
55	85	128	158	10	2
55	82	64	94	10	2
20	82	37	67	10	1
18	80	113	143	10	2
2	45	45	75	10	3
42	5	0	184	10	1
42	12	104	134	10	1
72	35	0	194	10	3
12	38	0	240	5	4
49	72	0	240	5	4
71	64	0	240	5	4
0	1	0	
0	0	0	
0	1	0	
0	1	0	
0	1	0	
0	0	0	
0	1	0	
0	0	0	
1	0	0	
0	0	0	
0	0	0	
1	0	0	
1	0	0	
1	0	0	
1	0	0	
1	0	0	
1	0	0	
1	0	0	
1	0	0	
1	0	0	
0	0	0	
1	0	0	
1	0	0	
1	0	0	
1	0	0	
0	0	1	
0	0	1	
0	0	0	
0	0	0	
0	0	1	
0	0	0	
0	0	0	
0	0	0	
0	0	0	
0	0	0	
0	1	0	
0	1	0	
0	1	0	
0	0	0	
0	0	0	
0	0	0	
0	0	0	
0	1	0	
0	1	0	
0	0	0	
0	1	0	
1	0	0	
0	0	0	
0	0	0	
0	0	1	
